(set-logic QF_LIA)
(declare-fun x0 () Int)
(declare-fun x1 () Int)
(declare-fun x2 () Int)
(declare-fun x3 () Int)
(declare-fun x4 () Int)
(declare-fun x5 () Int)
(declare-fun x6 () Int)
(declare-fun x7 () Int)
(declare-fun x8 () Int)
(declare-fun x9 () Int)
(declare-fun A0 () Bool)
(declare-fun A1 () Bool)
(declare-fun A2 () Bool)
(declare-fun A3 () Bool)
(declare-fun A4 () Bool)
(declare-fun A5 () Bool)
(declare-fun A6 () Bool)
(declare-fun A7 () Bool)
(declare-fun A8 () Bool)
(declare-fun A9 () Bool)
(assert (let ((.def_0 (* 1 x2))) (let ((.def_1 (* 1 x5))) (let ((.def_2 (+ .def_1 .def_0))) (let ((.def_3 (< .def_2 1))) (let ((.def_4 (* 1 x4))) (let ((.def_5 (* (- 1) x7))) (let ((.def_6 (+ .def_5 .def_4))) (let ((.def_7 (< .def_6 1))) (let ((.def_8 (or .def_7 .def_3))) (let ((.def_9 (not A6))) (let ((.def_10 (* 1 x7))) (let ((.def_11 (< .def_10 (- 1)))) (let ((.def_12 (not .def_11))) (let ((.def_13 (= .def_12 .def_9))) (let ((.def_14 (and .def_13 .def_8))) (let ((.def_15 (not .def_14))) (let ((.def_16 (+ .def_4 .def_10))) (let ((.def_17 (< .def_16 1))) (let ((.def_18 (not .def_17))) (let ((.def_19 (or .def_18 A6))) (let ((.def_20 (* (- 1) x4))) (let ((.def_21 (* 1 x0))) (let ((.def_22 (+ .def_21 .def_20))) (let ((.def_23 (< .def_22 (- 1)))) (let ((.def_24 (not .def_23))) (let ((.def_25 (or .def_9 .def_24))) (let ((.def_26 (and .def_25 .def_19))) (let ((.def_27 (and .def_26 .def_15))) (let ((.def_28 (not .def_27))) (let ((.def_29 (< .def_1 1))) (let ((.def_30 (< .def_0 (- 1)))) (let ((.def_31 (not .def_30))) (let ((.def_32 (and .def_31 .def_29))) (let ((.def_33 (not .def_32))) (let ((.def_34 (+ .def_21 .def_5))) (let ((.def_35 (< .def_34 1))) (let ((.def_36 (or A4 .def_35))) (let ((.def_37 (or .def_36 .def_33))) (let ((.def_38 (not .def_37))) (let ((.def_39 (< .def_21 (- 1)))) (let ((.def_40 (and .def_9 .def_39))) (let ((.def_41 (not .def_40))) (let ((.def_42 (* 1 x1))) (let ((.def_43 (+ .def_0 .def_42))) (let ((.def_44 (< .def_43 1))) (let ((.def_45 (not .def_44))) (let ((.def_46 (* 1 x6))) (let ((.def_47 (< .def_46 (- 1)))) (let ((.def_48 (and .def_47 .def_45))) (let ((.def_49 (not .def_48))) (let ((.def_50 (or .def_49 .def_41))) (let ((.def_51 (not .def_50))) (let ((.def_52 (or .def_51 .def_38))) (let ((.def_53 (and .def_52 .def_28))) (let ((.def_54 (* (- 1) x9))) (let ((.def_55 (< .def_54 (- 1)))) (let ((.def_56 (or A3 .def_55))) (let ((.def_57 (not .def_56))) (let ((.def_58 (not A9))) (let ((.def_59 (and .def_58 A7))) (let ((.def_60 (not .def_59))) (let ((.def_61 (or .def_60 .def_57))) (let ((.def_62 (not .def_61))) (let ((.def_63 (* (- 1) x1))) (let ((.def_64 (< .def_63 1))) (let ((.def_65 (not .def_64))) (let ((.def_66 (* 1 x9))) (let ((.def_67 (< .def_66 1))) (let ((.def_68 (not .def_67))) (let ((.def_69 (= .def_68 .def_65))) (let ((.def_70 (not A8))) (let ((.def_71 (or A8 .def_70))) (let ((.def_72 (or .def_71 .def_69))) (let ((.def_73 (not .def_72))) (let ((.def_74 (or .def_73 .def_62))) (let ((.def_75 (* (- 1) x6))) (let ((.def_76 (+ .def_75 .def_66))) (let ((.def_77 (< .def_76 (- 1)))) (let ((.def_78 (not .def_77))) (let ((.def_79 (* (- 1) x0))) (let ((.def_80 (* 1 x3))) (let ((.def_81 (+ .def_80 .def_79))) (let ((.def_82 (< .def_81 1))) (let ((.def_83 (not .def_82))) (let ((.def_84 (or .def_83 .def_78))) (let ((.def_85 (not .def_84))) (let ((.def_86 (or .def_12 .def_30))) (let ((.def_87 (or .def_86 .def_85))) (let ((.def_88 (* (- 1) x2))) (let ((.def_89 (< .def_88 (- 1)))) (let ((.def_90 (< .def_46 1))) (let ((.def_91 (or .def_90 .def_89))) (let ((.def_92 (not .def_91))) (let ((.def_93 (or .def_9 A8))) (let ((.def_94 (or .def_93 .def_92))) (let ((.def_95 (or .def_94 .def_87))) (let ((.def_96 (or .def_95 .def_74))) (let ((.def_97 (and .def_96 .def_53))) (let ((.def_98 (not .def_97))) (let ((.def_99 (not A3))) (let ((.def_100 (+ .def_66 .def_88))) (let ((.def_101 (< .def_100 (- 1)))) (let ((.def_102 (not .def_101))) (let ((.def_103 (or .def_102 .def_99))) (let ((.def_104 (+ .def_1 .def_20))) (let ((.def_105 (< .def_104 1))) (let ((.def_106 (not .def_105))) (let ((.def_107 (or A6 .def_106))) (let ((.def_108 (and .def_107 .def_103))) (let ((.def_109 (not A2))) (let ((.def_110 (and A7 .def_109))) (let ((.def_111 (< .def_5 1))) (let ((.def_112 (not .def_111))) (let ((.def_113 (+ .def_79 .def_5))) (let ((.def_114 (< .def_113 (- 1)))) (let ((.def_115 (and .def_114 .def_112))) (let ((.def_116 (not .def_115))) (let ((.def_117 (and .def_116 .def_110))) (let ((.def_118 (and .def_117 .def_108))) (let ((.def_119 (not A1))) (let ((.def_120 (and .def_119 A6))) (let ((.def_121 (not .def_120))) (let ((.def_122 (< .def_0 1))) (let ((.def_123 (and .def_39 .def_122))) (let ((.def_124 (or .def_123 .def_121))) (let ((.def_125 (+ .def_42 .def_54))) (let ((.def_126 (< .def_125 (- 1)))) (let ((.def_127 (and .def_126 .def_99))) (let ((.def_128 (not .def_39))) (let ((.def_129 (and .def_128 A9))) (let ((.def_130 (not .def_129))) (let ((.def_131 (or .def_130 .def_127))) (let ((.def_132 (not .def_131))) (let ((.def_133 (or .def_132 .def_124))) (let ((.def_134 (or .def_133 .def_118))) (let ((.def_135 (and .def_9 .def_35))) (let ((.def_136 (not .def_135))) (let ((.def_137 (and .def_65 .def_47))) (let ((.def_138 (not .def_137))) (let ((.def_139 (or .def_138 .def_136))) (let ((.def_140 (+ .def_88 .def_66))) (let ((.def_141 (< .def_140 1))) (let ((.def_142 (or .def_47 .def_141))) (let ((.def_143 (not .def_142))) (let ((.def_144 (* (- 1) x3))) (let ((.def_145 (< .def_144 (- 1)))) (let ((.def_146 (not A5))) (let ((.def_147 (= .def_146 .def_145))) (let ((.def_148 (not .def_147))) (let ((.def_149 (or .def_148 .def_143))) (let ((.def_150 (not .def_149))) (let ((.def_151 (or .def_150 .def_139))) (let ((.def_152 (not .def_151))) (let ((.def_153 (* 1 x8))) (let ((.def_154 (* (- 1) x5))) (let ((.def_155 (+ .def_154 .def_153))) (let ((.def_156 (< .def_155 1))) (let ((.def_157 (and .def_156 A8))) (let ((.def_158 (+ .def_46 .def_5))) (let ((.def_159 (< .def_158 (- 1)))) (let ((.def_160 (or .def_159 .def_9))) (let ((.def_161 (or .def_160 .def_157))) (let ((.def_162 (not .def_161))) (let ((.def_163 (or .def_58 A5))) (let ((.def_164 (+ .def_5 .def_66))) (let ((.def_165 (< .def_164 1))) (let ((.def_166 (and .def_165 A9))) (let ((.def_167 (not .def_166))) (let ((.def_168 (and .def_167 .def_163))) (let ((.def_169 (and .def_168 .def_162))) (let ((.def_170 (and .def_169 .def_152))) (let ((.def_171 (and .def_170 .def_134))) (let ((.def_172 (not .def_171))) (let ((.def_173 (and .def_172 .def_98))) (let ((.def_174 (not .def_173))) (let ((.def_175 (< .def_80 (- 1)))) (let ((.def_176 (and .def_175 .def_146))) (let ((.def_177 (+ .def_21 .def_46))) (let ((.def_178 (< .def_177 1))) (let ((.def_179 (not .def_178))) (let ((.def_180 (not .def_145))) (let ((.def_181 (or .def_180 .def_179))) (let ((.def_182 (= .def_181 .def_176))) (let ((.def_183 (not .def_182))) (let ((.def_184 (+ .def_88 .def_79))) (let ((.def_185 (< .def_184 1))) (let ((.def_186 (+ .def_88 .def_21))) (let ((.def_187 (< .def_186 1))) (let ((.def_188 (= .def_187 .def_185))) (let ((.def_189 (not .def_188))) (let ((.def_190 (not A4))) (let ((.def_191 (or .def_99 .def_190))) (let ((.def_192 (and .def_191 .def_189))) (let ((.def_193 (and .def_192 .def_183))) (let ((.def_194 (or .def_175 A3))) (let ((.def_195 (+ .def_1 .def_88))) (let ((.def_196 (< .def_195 1))) (let ((.def_197 (not .def_196))) (let ((.def_198 (and .def_146 .def_197))) (let ((.def_199 (not .def_198))) (let ((.def_200 (or .def_199 .def_194))) (let ((.def_201 (not .def_200))) (let ((.def_202 (not A0))) (let ((.def_203 (or .def_122 .def_202))) (let ((.def_204 (not .def_203))) (let ((.def_205 (+ .def_63 .def_79))) (let ((.def_206 (< .def_205 (- 1)))) (let ((.def_207 (not .def_206))) (let ((.def_208 (or .def_207 .def_119))) (let ((.def_209 (not .def_208))) (let ((.def_210 (and .def_209 .def_204))) (let ((.def_211 (= .def_210 .def_201))) (let ((.def_212 (not .def_211))) (let ((.def_213 (or .def_212 .def_193))) (let ((.def_214 (not .def_213))) (let ((.def_215 (* (- 1) x8))) (let ((.def_216 (< .def_215 1))) (let ((.def_217 (not .def_216))) (let ((.def_218 (+ .def_88 .def_215))) (let ((.def_219 (< .def_218 (- 1)))) (let ((.def_220 (not .def_219))) (let ((.def_221 (and .def_220 .def_217))) (let ((.def_222 (+ .def_4 .def_154))) (let ((.def_223 (< .def_222 (- 1)))) (let ((.def_224 (and .def_70 .def_223))) (let ((.def_225 (or .def_224 .def_221))) (let ((.def_226 (not .def_225))) (let ((.def_227 (< .def_4 1))) (let ((.def_228 (not .def_227))) (let ((.def_229 (or .def_228 .def_90))) (let ((.def_230 (and .def_145 A2))) (let ((.def_231 (or .def_230 .def_229))) (let ((.def_232 (or .def_231 .def_226))) (let ((.def_233 (and .def_146 .def_119))) (let ((.def_234 (not .def_233))) (let ((.def_235 (+ .def_154 .def_20))) (let ((.def_236 (< .def_235 1))) (let ((.def_237 (or A2 .def_236))) (let ((.def_238 (not .def_237))) (let ((.def_239 (and .def_238 .def_234))) (let ((.def_240 (< .def_1 (- 1)))) (let ((.def_241 (not .def_240))) (let ((.def_242 (< .def_42 (- 1)))) (let ((.def_243 (or .def_242 .def_241))) (let ((.def_244 (+ .def_0 .def_20))) (let ((.def_245 (< .def_244 1))) (let ((.def_246 (not .def_245))) (let ((.def_247 (and .def_246 A8))) (let ((.def_248 (not .def_247))) (let ((.def_249 (or .def_248 .def_243))) (let ((.def_250 (or .def_249 .def_239))) (let ((.def_251 (and .def_250 .def_232))) (let ((.def_252 (or .def_251 .def_214))) (let ((.def_253 (not .def_252))) (let ((.def_254 (+ .def_5 .def_88))) (let ((.def_255 (< .def_254 (- 1)))) (let ((.def_256 (and A6 .def_255))) (let ((.def_257 (not .def_256))) (let ((.def_258 (= .def_216 A4))) (let ((.def_259 (and .def_258 .def_257))) (let ((.def_260 (not A7))) (let ((.def_261 (or A2 .def_260))) (let ((.def_262 (not .def_261))) (let ((.def_263 (+ .def_20 .def_5))) (let ((.def_264 (< .def_263 1))) (let ((.def_265 (not .def_264))) (let ((.def_266 (+ .def_66 .def_154))) (let ((.def_267 (< .def_266 (- 1)))) (let ((.def_268 (not .def_267))) (let ((.def_269 (and .def_268 .def_265))) (let ((.def_270 (and .def_269 .def_262))) (let ((.def_271 (and .def_270 .def_259))) (let ((.def_272 (not .def_271))) (let ((.def_273 (< .def_20 1))) (let ((.def_274 (not .def_273))) (let ((.def_275 (and .def_274 .def_70))) (let ((.def_276 (not .def_275))) (let ((.def_277 (+ .def_63 .def_75))) (let ((.def_278 (< .def_277 1))) (let ((.def_279 (and .def_278 .def_70))) (let ((.def_280 (not .def_279))) (let ((.def_281 (and .def_280 .def_276))) (let ((.def_282 (not .def_281))) (let ((.def_283 (< .def_144 1))) (let ((.def_284 (not .def_283))) (let ((.def_285 (and .def_284 .def_180))) (let ((.def_286 (not .def_285))) (let ((.def_287 (+ .def_88 .def_1))) (let ((.def_288 (< .def_287 1))) (let ((.def_289 (and .def_288 .def_70))) (let ((.def_290 (and .def_289 .def_286))) (let ((.def_291 (and .def_290 .def_282))) (let ((.def_292 (not .def_291))) (let ((.def_293 (and .def_292 .def_272))) (let ((.def_294 (not .def_293))) (let ((.def_295 (< .def_164 (- 1)))) (let ((.def_296 (and .def_273 .def_295))) (let ((.def_297 (not .def_296))) (let ((.def_298 (and .def_65 .def_246))) (let ((.def_299 (not .def_298))) (let ((.def_300 (or .def_299 .def_297))) (let ((.def_301 (not .def_300))) (let ((.def_302 (< .def_66 (- 1)))) (let ((.def_303 (not .def_55))) (let ((.def_304 (and .def_303 .def_302))) (let ((.def_305 (not .def_304))) (let ((.def_306 (and A3 A0))) (let ((.def_307 (not .def_306))) (let ((.def_308 (and .def_307 .def_305))) (let ((.def_309 (not .def_308))) (let ((.def_310 (or .def_309 .def_301))) (let ((.def_311 (not .def_310))) (let ((.def_312 (and .def_260 A5))) (let ((.def_313 (not .def_312))) (let ((.def_314 (+ .def_10 .def_54))) (let ((.def_315 (< .def_314 1))) (let ((.def_316 (= .def_109 .def_315))) (let ((.def_317 (not .def_316))) (let ((.def_318 (or .def_317 .def_313))) (let ((.def_319 (not .def_318))) (let ((.def_320 (+ .def_144 .def_10))) (let ((.def_321 (< .def_320 (- 1)))) (let ((.def_322 (+ .def_63 .def_144))) (let ((.def_323 (< .def_322 (- 1)))) (let ((.def_324 (= .def_323 .def_321))) (let ((.def_325 (not .def_324))) (let ((.def_326 (< .def_104 (- 1)))) (let ((.def_327 (not .def_326))) (let ((.def_328 (and A4 .def_327))) (let ((.def_329 (or .def_328 .def_325))) (let ((.def_330 (not .def_329))) (let ((.def_331 (or .def_330 .def_319))) (let ((.def_332 (and .def_331 .def_311))) (let ((.def_333 (or .def_332 .def_294))) (let ((.def_334 (and .def_333 .def_253))) (let ((.def_335 (not .def_334))) (let ((.def_336 (or .def_335 .def_174))) (let ((.def_337 (< .def_154 (- 1)))) (let ((.def_338 (not .def_337))) (let ((.def_339 (< .def_20 (- 1)))) (let ((.def_340 (not .def_339))) (let ((.def_341 (or .def_340 .def_338))) (let ((.def_342 (+ .def_153 .def_88))) (let ((.def_343 (< .def_342 1))) (let ((.def_344 (not .def_343))) (let ((.def_345 (and .def_146 .def_344))) (let ((.def_346 (= .def_345 .def_341))) (let ((.def_347 (not .def_47))) (let ((.def_348 (not .def_236))) (let ((.def_349 (= .def_348 .def_347))) (let ((.def_350 (not .def_349))) (let ((.def_351 (< .def_63 (- 1)))) (let ((.def_352 (not .def_351))) (let ((.def_353 (or A2 .def_352))) (let ((.def_354 (not .def_353))) (let ((.def_355 (or .def_354 .def_350))) (let ((.def_356 (not .def_355))) (let ((.def_357 (or .def_356 .def_346))) (let ((.def_358 (+ .def_79 .def_80))) (let ((.def_359 (< .def_358 (- 1)))) (let ((.def_360 (and .def_99 .def_359))) (let ((.def_361 (not .def_360))) (let ((.def_362 (or .def_283 A2))) (let ((.def_363 (or .def_362 .def_361))) (let ((.def_364 (+ .def_0 .def_75))) (let ((.def_365 (< .def_364 1))) (let ((.def_366 (or A9 .def_365))) (let ((.def_367 (not .def_366))) (let ((.def_368 (and A8 .def_156))) (let ((.def_369 (and .def_368 .def_367))) (let ((.def_370 (not .def_369))) (let ((.def_371 (or .def_370 .def_363))) (let ((.def_372 (or .def_371 .def_357))) (let ((.def_373 (< .def_154 1))) (let ((.def_374 (not .def_373))) (let ((.def_375 (and .def_374 .def_202))) (let ((.def_376 (not .def_375))) (let ((.def_377 (not .def_122))) (let ((.def_378 (and A2 .def_377))) (let ((.def_379 (not .def_378))) (let ((.def_380 (= .def_379 .def_376))) (let ((.def_381 (not .def_380))) (let ((.def_382 (< .def_75 (- 1)))) (let ((.def_383 (= .def_58 .def_382))) (let ((.def_384 (and .def_190 .def_240))) (let ((.def_385 (not .def_384))) (let ((.def_386 (and .def_385 .def_383))) (let ((.def_387 (or .def_386 .def_381))) (let ((.def_388 (not .def_387))) (let ((.def_389 (+ .def_4 .def_88))) (let ((.def_390 (< .def_389 (- 1)))) (let ((.def_391 (not .def_390))) (let ((.def_392 (< .def_5 (- 1)))) (let ((.def_393 (not .def_392))) (let ((.def_394 (and .def_393 .def_391))) (let ((.def_395 (+ .def_4 .def_54))) (let ((.def_396 (< .def_395 1))) (let ((.def_397 (not .def_396))) (let ((.def_398 (or .def_397 A8))) (let ((.def_399 (or .def_398 .def_394))) (let ((.def_400 (not .def_399))) (let ((.def_401 (< .def_153 1))) (let ((.def_402 (not .def_401))) (let ((.def_403 (or .def_70 .def_402))) (let ((.def_404 (+ .def_21 .def_75))) (let ((.def_405 (< .def_404 (- 1)))) (let ((.def_406 (or A2 .def_405))) (let ((.def_407 (or .def_406 .def_403))) (let ((.def_408 (or .def_407 .def_400))) (let ((.def_409 (and .def_408 .def_388))) (let ((.def_410 (not .def_409))) (let ((.def_411 (and .def_410 .def_372))) (let ((.def_412 (not .def_411))) (let ((.def_413 (and A6 .def_202))) (let ((.def_414 (not .def_413))) (let ((.def_415 (+ .def_5 .def_20))) (let ((.def_416 (< .def_415 (- 1)))) (let ((.def_417 (or .def_416 A6))) (let ((.def_418 (or .def_417 .def_414))) (let ((.def_419 (not .def_418))) (let ((.def_420 (+ .def_46 .def_54))) (let ((.def_421 (< .def_420 1))) (let ((.def_422 (or .def_99 .def_421))) (let ((.def_423 (+ .def_144 .def_75))) (let ((.def_424 (< .def_423 1))) (let ((.def_425 (or .def_424 A4))) (let ((.def_426 (not .def_425))) (let ((.def_427 (or .def_426 .def_422))) (let ((.def_428 (not .def_427))) (let ((.def_429 (or .def_428 .def_419))) (let ((.def_430 (not .def_429))) (let ((.def_431 (and .def_67 .def_145))) (let ((.def_432 (not .def_431))) (let ((.def_433 (+ .def_154 .def_80))) (let ((.def_434 (< .def_433 (- 1)))) (let ((.def_435 (or .def_434 A0))) (let ((.def_436 (not .def_435))) (let ((.def_437 (or .def_436 .def_432))) (let ((.def_438 (not .def_175))) (let ((.def_439 (+ .def_42 .def_10))) (let ((.def_440 (< .def_439 1))) (let ((.def_441 (and .def_440 .def_438))) (let ((.def_442 (+ .def_1 .def_10))) (let ((.def_443 (< .def_442 (- 1)))) (let ((.def_444 (and .def_260 .def_443))) (let ((.def_445 (not .def_444))) (let ((.def_446 (or .def_445 .def_441))) (let ((.def_447 (not .def_446))) (let ((.def_448 (or .def_447 .def_437))) (let ((.def_449 (not .def_448))) (let ((.def_450 (or .def_449 .def_430))) (let ((.def_451 (+ .def_4 .def_46))) (let ((.def_452 (< .def_451 (- 1)))) (let ((.def_453 (not .def_452))) (let ((.def_454 (or .def_453 .def_99))) (let ((.def_455 (not .def_454))) (let ((.def_456 (< .def_10 1))) (let ((.def_457 (not .def_456))) (let ((.def_458 (and .def_457 .def_202))) (let ((.def_459 (or .def_458 .def_455))) (let ((.def_460 (or .def_9 .def_373))) (let ((.def_461 (or A7 .def_58))) (let ((.def_462 (and .def_461 .def_460))) (let ((.def_463 (or .def_462 .def_459))) (let ((.def_464 (or .def_202 A4))) (let ((.def_465 (not .def_464))) (let ((.def_466 (and A7 .def_443))) (let ((.def_467 (or .def_466 .def_465))) (let ((.def_468 (+ .def_10 .def_79))) (let ((.def_469 (< .def_468 (- 1)))) (let ((.def_470 (not .def_469))) (let ((.def_471 (or .def_470 A7))) (let ((.def_472 (or .def_146 .def_216))) (let ((.def_473 (and .def_472 .def_471))) (let ((.def_474 (or .def_473 .def_467))) (let ((.def_475 (and .def_474 .def_463))) (let ((.def_476 (not .def_475))) (let ((.def_477 (and .def_476 .def_450))) (let ((.def_478 (or .def_477 .def_412))) (let ((.def_479 (+ .def_21 .def_80))) (let ((.def_480 (< .def_479 1))) (let ((.def_481 (and .def_480 .def_338))) (let ((.def_482 (< .def_195 (- 1)))) (let ((.def_483 (+ .def_215 .def_88))) (let ((.def_484 (< .def_483 (- 1)))) (let ((.def_485 (not .def_484))) (let ((.def_486 (= .def_485 .def_482))) (let ((.def_487 (or .def_486 .def_481))) (let ((.def_488 (+ .def_79 .def_88))) (let ((.def_489 (< .def_488 (- 1)))) (let ((.def_490 (or A6 .def_489))) (let ((.def_491 (not .def_490))) (let ((.def_492 (+ .def_21 .def_63))) (let ((.def_493 (< .def_492 (- 1)))) (let ((.def_494 (and A4 .def_493))) (let ((.def_495 (not .def_494))) (let ((.def_496 (and .def_495 .def_491))) (let ((.def_497 (or .def_496 .def_487))) (let ((.def_498 (not .def_497))) (let ((.def_499 (+ .def_153 .def_10))) (let ((.def_500 (< .def_499 1))) (let ((.def_501 (and .def_500 A9))) (let ((.def_502 (+ .def_66 .def_144))) (let ((.def_503 (< .def_502 (- 1)))) (let ((.def_504 (= A7 .def_503))) (let ((.def_505 (and .def_504 .def_501))) (let ((.def_506 (not .def_505))) (let ((.def_507 (+ .def_42 .def_0))) (let ((.def_508 (< .def_507 1))) (let ((.def_509 (and .def_508 A3))) (let ((.def_510 (not .def_509))) (let ((.def_511 (+ .def_63 .def_0))) (let ((.def_512 (< .def_511 1))) (let ((.def_513 (and .def_64 .def_512))) (let ((.def_514 (or .def_513 .def_510))) (let ((.def_515 (or .def_514 .def_506))) (let ((.def_516 (and .def_515 .def_498))) (let ((.def_517 (= .def_202 A8))) (let ((.def_518 (not .def_517))) (let ((.def_519 (or .def_470 .def_352))) (let ((.def_520 (not .def_519))) (let ((.def_521 (and .def_520 .def_518))) (let ((.def_522 (not .def_242))) (let ((.def_523 (or A6 .def_522))) (let ((.def_524 (or A2 .def_111))) (let ((.def_525 (not .def_524))) (let ((.def_526 (or .def_525 .def_523))) (let ((.def_527 (or .def_526 .def_521))) (let ((.def_528 (+ .def_153 .def_4))) (let ((.def_529 (< .def_528 (- 1)))) (let ((.def_530 (and A7 .def_529))) (let ((.def_531 (not .def_530))) (let ((.def_532 (or .def_58 .def_111))) (let ((.def_533 (= .def_532 .def_531))) (let ((.def_534 (and A4 A3))) (let ((.def_535 (not .def_534))) (let ((.def_536 (= .def_67 .def_70))) (let ((.def_537 (not .def_536))) (let ((.def_538 (and .def_537 .def_535))) (let ((.def_539 (or .def_538 .def_533))) (let ((.def_540 (or .def_539 .def_527))) (let ((.def_541 (or .def_540 .def_516))) (let ((.def_542 (not .def_541))) (let ((.def_543 (+ .def_215 .def_144))) (let ((.def_544 (< .def_543 (- 1)))) (let ((.def_545 (not .def_544))) (let ((.def_546 (+ .def_20 .def_0))) (let ((.def_547 (< .def_546 (- 1)))) (let ((.def_548 (not .def_547))) (let ((.def_549 (or .def_548 .def_545))) (let ((.def_550 (not .def_549))) (let ((.def_551 (and .def_122 A2))) (let ((.def_552 (not .def_551))) (let ((.def_553 (= .def_552 .def_550))) (let ((.def_554 (+ .def_215 .def_63))) (let ((.def_555 (< .def_554 1))) (let ((.def_556 (or .def_555 .def_340))) (let ((.def_557 (or A3 .def_382))) (let ((.def_558 (not .def_557))) (let ((.def_559 (or .def_558 .def_556))) (let ((.def_560 (and .def_559 .def_553))) (let ((.def_561 (not .def_560))) (let ((.def_562 (= .def_216 .def_109))) (let ((.def_563 (not .def_562))) (let ((.def_564 (= A9 A6))) (let ((.def_565 (or .def_564 .def_563))) (let ((.def_566 (and A1 A3))) (let ((.def_567 (and .def_119 .def_58))) (let ((.def_568 (or .def_567 .def_566))) (let ((.def_569 (not .def_568))) (let ((.def_570 (or .def_569 .def_565))) (let ((.def_571 (or .def_570 .def_561))) (let ((.def_572 (+ .def_88 .def_4))) (let ((.def_573 (< .def_572 1))) (let ((.def_574 (and A3 .def_573))) (let ((.def_575 (not .def_574))) (let ((.def_576 (or A8 .def_202))) (let ((.def_577 (not .def_576))) (let ((.def_578 (or .def_577 .def_575))) (let ((.def_579 (not .def_578))) (let ((.def_580 (or .def_65 .def_202))) (let ((.def_581 (not .def_580))) (let ((.def_582 (+ .def_63 .def_154))) (let ((.def_583 (< .def_582 1))) (let ((.def_584 (or .def_283 .def_583))) (let ((.def_585 (not .def_584))) (let ((.def_586 (and .def_585 .def_581))) (let ((.def_587 (not .def_586))) (let ((.def_588 (and .def_587 .def_579))) (let ((.def_589 (< .def_79 1))) (let ((.def_590 (or .def_109 .def_589))) (let ((.def_591 (not .def_590))) (let ((.def_592 (< .def_21 1))) (let ((.def_593 (not .def_592))) (let ((.def_594 (or A1 .def_593))) (let ((.def_595 (or .def_594 .def_591))) (let ((.def_596 (not .def_595))) (let ((.def_597 (+ .def_4 .def_63))) (let ((.def_598 (< .def_597 (- 1)))) (let ((.def_599 (and A9 .def_598))) (let ((.def_600 (and .def_109 .def_119))) (let ((.def_601 (not .def_600))) (let ((.def_602 (or .def_601 .def_599))) (let ((.def_603 (and .def_602 .def_596))) (let ((.def_604 (or .def_603 .def_588))) (let ((.def_605 (not .def_604))) (let ((.def_606 (and .def_605 .def_571))) (let ((.def_607 (not .def_606))) (let ((.def_608 (and .def_607 .def_542))) (let ((.def_609 (and .def_608 .def_478))) (let ((.def_610 (and .def_609 .def_336))) (let ((.def_611 (not .def_610))) (let ((.def_612 (<= x9 1))) (let ((.def_613 (<= 0 x9))) (let ((.def_614 (<= x8 1))) (let ((.def_615 (<= 0 x8))) (let ((.def_616 (<= x7 1))) (let ((.def_617 (<= 0 x7))) (let ((.def_618 (<= x6 1))) (let ((.def_619 (<= 0 x6))) (let ((.def_620 (<= x5 1))) (let ((.def_621 (<= 0 x5))) (let ((.def_622 (<= x4 1))) (let ((.def_623 (<= 0 x4))) (let ((.def_624 (<= x3 1))) (let ((.def_625 (<= 0 x3))) (let ((.def_626 (<= x2 1))) (let ((.def_627 (<= 0 x2))) (let ((.def_628 (<= x1 1))) (let ((.def_629 (<= 0 x1))) (let ((.def_630 (<= x0 1))) (let ((.def_631 (<= 0 x0))) (let ((.def_632 (and .def_631 .def_630 .def_629 .def_628 .def_627 .def_626 .def_625 .def_624 .def_623 .def_622 .def_621 .def_620 .def_619 .def_618 .def_617 .def_616 .def_615 .def_614 .def_613 .def_612 .def_611))) .def_632))))))))))))))))))))))))))))))))))))))))))))))))))))))))))))))))))))))))))))))))))))))))))))))))))))))))))))))))))))))))))))))))))))))))))))))))))))))))))))))))))))))))))))))))))))))))))))))))))))))))))))))))))))))))))))))))))))))))))))))))))))))))))))))))))))))))))))))))))))))))))))))))))))))))))))))))))))))))))))))))))))))))))))))))))))))))))))))))))))))))))))))))))))))))))))))))))))))))))))))))))))))))))))))))))))))))))))))))))))))))))))))))))))))))))))))))))))))))))))))))))))))))))))))))))))))))))))))))))))))))))))))))))))))))))))))))))))))))))))))))))))))))))))))))))))))))))))))))))))))))))))))))))))))))))))))))))))))))))
(check-sat)
